n=8;
hearts=42;
clubs=4;
spades=54;
diamonds=6;
blocked=18;
m=array2d(1..n, 1..n,[
	_,5,_,1,_,_,_,2,
	_,_,5,5,5,5,_,_,
	_,5,4,_,_,_,5,5,
	_,4,_,5,_,_,2,4,
	5,_,5,2,3,5,5,_,
	5,2,5,_,3,5,5,5,
	_,_,_,_,_,_,3,_,
	_,_,_,_,_,_,_,_
]);
